DIR: 0.2620146314439963, EFF: 0.4392977276858791, INT: 0.010344181452095598, OBJ: 0.288343459418029
original problem has 2502 variables (192 bin, 0 int, 0 impl, 2310 cont) and 2208 constraints
unknown variable <t_x__63101> in line 2 of solution file </mnt/lscratch/users/dferrario/Adaptive-Cutsel-MILP/TransformedSolutions/a2c1s1__trans__seed__1.sol>
  (further unknown variables are ignored)
1/1 feasible solution given by solution candidate storage, new primal bound 1.088914e+04

presolving:
   (0.0s) running MILP presolver
   (0.1s) MILP presolver (19 rounds): 0 aggregations, 0 fixings, 201 bound changes
   (0.3s) probing cycle finished: starting next cycle
presolving (1 rounds: 1 fast, 1 medium, 1 exhaustive):
 39 deleted vars, 0 deleted constraints, 0 added constraints, 253 tightened bounds, 0 added holes, 0 changed sides, 2 changed coefficients
 5247 implications, 33 cliques
presolved problem has 2463 variables (192 bin, 0 int, 0 impl, 2271 cont) and 2208 constraints
    909 constraints of type <varbound>
   1299 constraints of type <linear>
Presolving Time: 0.30
transformed 1/1 original solutions to the transformed problem space

 time | node  | left  |LP iter|LP it/n|mem/heur|mdpt |vars |cons |rows |cuts |sepa|confs|strbr|  dualbound   | primalbound  |  gap   | compl. 
  0.4s|     1 |     0 |  1181 |     - |    17M |   0 |2463 |2208 |2208 |   0 |  0 |   0 |   0 | 2.067048e+03 | 1.088914e+04 | 426.80%| unknown
Computing relative interior point (time limit: 1e+20, iter limit: 11810) ...
  1.9s|     1 |     0 |  1193 |     - |    18M |   0 |2463 |2208 |2218 |  10 |  1 |   0 |   0 | 2.456502e+03 | 1.088914e+04 | 343.28%| unknown
  2.2s|     1 |     0 |  1224 |     - |    20M |   0 |2463 |2208 |2228 |  20 |  2 |   0 |   0 | 2.541468e+03 | 1.088914e+04 | 328.46%| unknown
  2.5s|     1 |     0 |  1277 |     - |    22M |   0 |2463 |2208 |2238 |  30 |  3 |   0 |   0 | 2.627360e+03 | 1.088914e+04 | 314.45%| unknown
  2.9s|     1 |     0 |  1306 |     - |    23M |   0 |2463 |2208 |2248 |  40 |  4 |   0 |   0 | 2.682236e+03 | 1.088914e+04 | 305.97%| unknown
  3.3s|     1 |     0 |  1356 |     - |    23M |   0 |2463 |2208 |2258 |  50 |  5 |   0 |   0 | 2.752576e+03 | 1.088914e+04 | 295.60%| unknown
  3.6s|     1 |     0 |  1383 |     - |    23M |   0 |2463 |2208 |2268 |  60 |  6 |   0 |   0 | 2.844280e+03 | 1.088914e+04 | 282.84%| unknown
  4.0s|     1 |     0 |  1429 |     - |    25M |   0 |2463 |2208 |2278 |  70 |  7 |   0 |   0 | 2.930268e+03 | 1.088914e+04 | 271.61%| unknown
  4.4s|     1 |     0 |  1469 |     - |    25M |   0 |2463 |2208 |2288 |  80 |  8 |   0 |   0 | 3.253071e+03 | 1.088914e+04 | 234.73%| unknown
  4.7s|     1 |     0 |  1505 |     - |    26M |   0 |2463 |2208 |2298 |  90 |  9 |   0 |   0 | 3.319958e+03 | 1.088914e+04 | 227.99%| unknown
  5.1s|     1 |     0 |  1557 |     - |    26M |   0 |2463 |2208 |2308 | 100 | 10 |   0 |   0 | 3.462265e+03 | 1.088914e+04 | 214.51%| unknown
  5.5s|     1 |     0 |  1592 |     - |    27M |   0 |2463 |2208 |2318 | 110 | 11 |   0 |   0 | 3.507340e+03 | 1.088914e+04 | 210.47%| unknown
  5.9s|     1 |     0 |  1632 |     - |    27M |   0 |2463 |2208 |2328 | 120 | 12 |   0 |   0 | 3.549236e+03 | 1.088914e+04 | 206.80%| unknown
  6.4s|     1 |     0 |  1657 |     - |    27M |   0 |2463 |2208 |2338 | 130 | 13 |   0 |   0 | 3.589871e+03 | 1.088914e+04 | 203.33%| unknown
  6.9s|     1 |     0 |  1690 |     - |    28M |   0 |2463 |2208 |2348 | 140 | 14 |   0 |   0 | 3.628109e+03 | 1.088914e+04 | 200.13%| unknown
 time | node  | left  |LP iter|LP it/n|mem/heur|mdpt |vars |cons |rows |cuts |sepa|confs|strbr|  dualbound   | primalbound  |  gap   | compl. 
  7.3s|     1 |     0 |  1725 |     - |    29M |   0 |2463 |2208 |2358 | 150 | 15 |   0 |   0 | 3.659613e+03 | 1.088914e+04 | 197.55%| unknown
  7.8s|     1 |     0 |  1762 |     - |    30M |   0 |2463 |2208 |2368 | 160 | 16 |   0 |   0 | 3.711787e+03 | 1.088914e+04 | 193.37%| unknown
  8.3s|     1 |     0 |  1797 |     - |    31M |   0 |2463 |2208 |2370 | 170 | 17 |   0 |   0 | 3.750495e+03 | 1.088914e+04 | 190.34%| unknown
  8.8s|     1 |     0 |  1828 |     - |    31M |   0 |2463 |2208 |2380 | 180 | 18 |   0 |   0 | 3.788261e+03 | 1.088914e+04 | 187.44%| unknown
  9.3s|     1 |     0 |  1854 |     - |    32M |   0 |2463 |2208 |2390 | 190 | 19 |   0 |   0 | 3.811170e+03 | 1.088914e+04 | 185.72%| unknown
  9.8s|     1 |     0 |  1898 |     - |    32M |   0 |2463 |2208 |2400 | 200 | 20 |   0 |   0 | 3.854670e+03 | 1.088914e+04 | 182.49%| unknown
 10.3s|     1 |     0 |  1948 |     - |    33M |   0 |2463 |2208 |2410 | 210 | 21 |   0 |   0 | 4.162176e+03 | 1.088914e+04 | 161.62%| unknown
 10.7s|     1 |     0 |  2014 |     - |    34M |   0 |2463 |2208 |2420 | 220 | 22 |   0 |   0 | 4.249583e+03 | 1.088914e+04 | 156.24%| unknown
 11.1s|     1 |     0 |  2068 |     - |    34M |   0 |2463 |2208 |2428 | 230 | 23 |   0 |   0 | 4.363199e+03 | 1.088914e+04 | 149.57%| unknown
 11.6s|     1 |     0 |  2120 |     - |    35M |   0 |2463 |2208 |2438 | 240 | 24 |   0 |   0 | 4.510949e+03 | 1.088914e+04 | 141.39%| unknown
 12.1s|     1 |     0 |  2179 |     - |    36M |   0 |2463 |2208 |2448 | 250 | 25 |   0 |   0 | 4.658272e+03 | 1.088914e+04 | 133.76%| unknown
 12.7s|     1 |     0 |  2212 |     - |    37M |   0 |2463 |2208 |2458 | 260 | 26 |   0 |   0 | 4.710559e+03 | 1.088914e+04 | 131.16%| unknown
 13.3s|     1 |     0 |  2244 |     - |    38M |   0 |2463 |2208 |2468 | 270 | 27 |   0 |   0 | 4.756910e+03 | 1.088914e+04 | 128.91%| unknown
 13.4s|     1 |     0 |  2283 |     - |    38M |   0 |2463 |2208 |2478 | 280 | 28 |   0 |   0 | 4.808009e+03 | 1.088914e+04 | 126.48%| unknown
 13.5s|     1 |     0 |  2336 |     - |    38M |   0 |2463 |2208 |2480 | 290 | 29 |   0 |   0 | 4.968647e+03 | 1.088914e+04 | 119.16%| unknown
 time | node  | left  |LP iter|LP it/n|mem/heur|mdpt |vars |cons |rows |cuts |sepa|confs|strbr|  dualbound   | primalbound  |  gap   | compl. 
 13.7s|     1 |     0 |  2381 |     - |    38M |   0 |2463 |2208 |2490 | 300 | 30 |   0 |   0 | 4.991155e+03 | 1.088914e+04 | 118.17%| unknown
 13.8s|     1 |     0 |  2420 |     - |    38M |   0 |2463 |2208 |2500 | 310 | 31 |   0 |   0 | 5.022949e+03 | 1.088914e+04 | 116.79%| unknown
 14.0s|     1 |     0 |  2464 |     - |    38M |   0 |2463 |2208 |2510 | 320 | 32 |   0 |   0 | 5.051935e+03 | 1.088914e+04 | 115.54%| unknown
 14.1s|     1 |     0 |  2534 |     - |    38M |   0 |2463 |2208 |2520 | 330 | 33 |   0 |   0 | 5.317391e+03 | 1.088914e+04 | 104.78%| unknown
 14.2s|     1 |     0 |  2590 |     - |    38M |   0 |2463 |2208 |2530 | 340 | 34 |   0 |   0 | 5.403436e+03 | 1.088914e+04 | 101.52%| unknown
 14.3s|     1 |     0 |  2637 |     - |    38M |   0 |2463 |2208 |2524 | 350 | 35 |   0 |   0 | 5.485575e+03 | 1.088914e+04 |  98.50%| unknown
 14.4s|     1 |     0 |  2684 |     - |    38M |   0 |2463 |2208 |2534 | 360 | 36 |   0 |   0 | 5.593881e+03 | 1.088914e+04 |  94.66%| unknown
 14.5s|     1 |     0 |  2774 |     - |    38M |   0 |2463 |2208 |2544 | 370 | 37 |   0 |   0 | 5.728601e+03 | 1.088914e+04 |  90.08%| unknown
 14.7s|     1 |     0 |  2837 |     - |    38M |   0 |2463 |2208 |2554 | 380 | 38 |   0 |   0 | 5.808692e+03 | 1.088914e+04 |  87.46%| unknown
 14.8s|     1 |     0 |  2901 |     - |    38M |   0 |2463 |2208 |2564 | 390 | 39 |   0 |   0 | 5.991170e+03 | 1.088914e+04 |  81.75%| unknown
 14.9s|     1 |     0 |  2990 |     - |    39M |   0 |2463 |2208 |2574 | 400 | 40 |   0 |   0 | 6.142714e+03 | 1.088914e+04 |  77.27%| unknown
 15.0s|     1 |     0 |  3076 |     - |    39M |   0 |2463 |2208 |2574 | 410 | 41 |   0 |   0 | 6.276546e+03 | 1.088914e+04 |  73.49%| unknown
 15.1s|     1 |     0 |  3113 |     - |    39M |   0 |2463 |2208 |2584 | 420 | 42 |   0 |   0 | 6.346496e+03 | 1.088914e+04 |  71.58%| unknown
 15.2s|     1 |     0 |  3153 |     - |    39M |   0 |2463 |2208 |2594 | 430 | 43 |   0 |   0 | 6.391033e+03 | 1.088914e+04 |  70.38%| unknown
 15.3s|     1 |     0 |  3241 |     - |    39M |   0 |2463 |2208 |2604 | 440 | 44 |   0 |   0 | 6.464920e+03 | 1.088914e+04 |  68.43%| unknown
 time | node  | left  |LP iter|LP it/n|mem/heur|mdpt |vars |cons |rows |cuts |sepa|confs|strbr|  dualbound   | primalbound  |  gap   | compl. 
 15.4s|     1 |     0 |  3287 |     - |    39M |   0 |2463 |2208 |2614 | 450 | 45 |   0 |   0 | 6.507954e+03 | 1.088914e+04 |  67.32%| unknown
 15.5s|     1 |     0 |  3346 |     - |    39M |   0 |2463 |2208 |2624 | 460 | 46 |   0 |   0 | 6.605312e+03 | 1.088914e+04 |  64.85%| unknown
 15.6s|     1 |     0 |  3389 |     - |    39M |   0 |2463 |2208 |2605 | 470 | 47 |   0 |   0 | 6.652319e+03 | 1.088914e+04 |  63.69%| unknown
 15.7s|     1 |     0 |  3454 |     - |    39M |   0 |2463 |2208 |2615 | 480 | 48 |   0 |   0 | 6.742595e+03 | 1.088914e+04 |  61.50%| unknown
 15.8s|     1 |     0 |  3507 |     - |    39M |   0 |2463 |2208 |2625 | 490 | 49 |   0 |   0 | 6.817590e+03 | 1.088914e+04 |  59.72%| unknown
 15.9s|     1 |     0 |  3553 |     - |    39M |   0 |2463 |2208 |2635 | 500 | 50 |   0 |   0 | 6.877869e+03 | 1.088914e+04 |  58.32%| unknown
 15.9s|     1 |     2 |  3553 |     - |    39M |   0 |2463 |2208 |2635 | 500 | 50 |   0 |   0 | 6.877869e+03 | 1.088914e+04 |  58.32%| unknown

SCIP Status        : solving was interrupted [node limit reached]
Solving Time (sec) : 15.87
Solving Nodes      : 1
Primal Bound       : +1.08891376250000e+04 (1 solutions)
Dual Bound         : +6.87786856564789e+03
Gap                : 58.32 %
